c Result of efficient AIG-to-CNF conversion using package CNF
p cnf 523 2012
-2 -3 -333 457 0
-2 3 333 -451 0
-2 3 333 457 0
-2 -3 -333 -451 0
2 3 -333 0
2 -3 333 0
2 451 -457 0
3 -4 -44 0
3 -44 -74 0
3 -4 -74 0
-3 4 74 0
-3 44 74 0
-3 4 44 0
4 -518 -5 32 0
4 518 -17 32 0
-4 -32 0
-4 -518 5 0
-4 518 17 0
5 519 -6 0
5 -519 -13 0
-5 -519 13 0
-5 519 6 0
6 520 -7 0
6 -520 -10 0
-6 -520 10 0
-6 520 7 0
7 521 -8 0
7 -521 -9 0
-7 -521 9 0
-7 521 8 0
8 -509 -522 0
8 -508 522 0
-8 508 522 0
-8 509 -522 0
9 -511 -522 0
9 -510 522 0
-9 510 522 0
-9 511 -522 0
10 521 -11 0
10 -521 -12 0
-10 -521 12 0
-10 521 11 0
11 -513 -522 0
11 -512 522 0
-11 512 522 0
-11 513 -522 0
12 -515 -522 0
12 -514 522 0
-12 514 522 0
-12 515 -522 0
13 520 -14 0
13 -520 521 522 0
-13 -520 -521 0
-13 520 14 0
-13 -520 -522 0
14 521 -15 0
14 -521 -16 0
-14 -521 16 0
-14 521 15 0
15 -517 -522 0
15 -516 522 0
-15 516 522 0
-15 517 -522 0
16 -519 -522 0
16 -518 522 0
-16 518 522 0
-16 519 -522 0
17 519 -18 0
17 -519 -25 0
-17 -519 25 0
-17 519 18 0
18 520 -19 0
18 -520 -22 0
-18 -520 22 0
-18 520 19 0
19 521 -20 0
19 -521 -21 0
-19 -521 21 0
-19 521 20 0
20 -493 -522 0
20 -492 522 0
-20 492 522 0
-20 493 -522 0
21 -495 -522 0
21 -494 522 0
-21 494 522 0
-21 495 -522 0
22 521 -23 0
22 -521 -24 0
-22 -521 24 0
-22 521 23 0
23 -497 -522 0
23 -496 522 0
-23 496 522 0
-23 497 -522 0
24 -499 -522 0
24 -498 522 0
-24 498 522 0
-24 499 -522 0
25 520 -26 0
25 -520 -29 0
-25 -520 29 0
-25 520 26 0
26 521 -27 0
26 -521 -28 0
-26 -521 28 0
-26 521 27 0
27 -501 -522 0
27 -500 522 0
-27 500 522 0
-27 501 -522 0
28 -503 -522 0
28 -502 522 0
-28 502 522 0
-28 503 -522 0
29 521 -30 0
29 -521 -31 0
-29 -521 31 0
-29 521 30 0
30 -505 -522 0
30 -504 522 0
-30 504 522 0
-30 505 -522 0
31 -507 -522 0
31 -506 522 0
-31 506 522 0
-31 507 -522 0
-32 33 36 42 43 0
32 -43 0
32 -33 0
32 -42 0
32 -36 0
-33 509 510 34 35 0
33 -509 0
33 -35 0
33 -34 0
33 -510 0
-34 506 507 508 0
34 -506 0
34 -508 0
34 -507 0
-35 503 504 505 0
35 -503 0
35 -505 0
35 -504 0
-36 513 514 37 0
36 -37 0
36 -514 0
36 -513 0
-37 491 492 493 38 0
37 -38 0
37 -493 0
37 -491 0
37 -492 0
-38 494 495 39 40 0
38 -494 0
38 -40 0
38 -39 0
38 -495 0
-39 501 502 0
39 -501 0
39 -502 0
-40 496 497 499 41 0
40 -41 0
40 -499 0
40 -496 0
40 -497 0
-41 498 500 0
41 -498 0
41 -500 0
-42 511 512 0
42 -511 0
42 -512 0
-43 515 516 517 0
43 -515 0
43 -517 0
43 -516 0
44 -518 32 -60 0
44 518 32 -45 0
-44 -32 0
-44 -518 60 0
-44 518 45 0
-45 519 46 0
-45 -519 53 0
45 -519 -53 0
45 519 -46 0
-46 520 47 0
-46 -520 50 0
46 -520 -50 0
46 520 -47 0
-47 521 49 0
-47 -521 48 0
47 -521 -48 0
47 521 -49 0
48 -463 -522 0
48 -462 522 0
-48 462 522 0
-48 463 -522 0
49 -461 -522 0
49 -460 522 0
-49 460 522 0
-49 461 -522 0
50 521 -51 0
50 -521 -52 0
-50 -521 52 0
-50 521 51 0
51 -465 -522 0
51 -464 522 0
-51 464 522 0
-51 465 -522 0
52 -467 -522 0
52 -466 522 0
-52 466 522 0
-52 467 -522 0
53 520 -54 0
53 -520 -57 0
-53 -520 57 0
-53 520 54 0
54 521 -55 0
54 -521 -56 0
-54 -521 56 0
-54 521 55 0
55 -469 -522 0
55 -468 522 0
-55 468 522 0
-55 469 -522 0
56 -471 -522 0
56 -470 522 0
-56 470 522 0
-56 471 -522 0
57 521 -58 0
57 -521 -59 0
-57 -521 59 0
-57 521 58 0
58 -473 -522 0
58 -472 522 0
-58 472 522 0
-58 473 -522 0
59 -475 -522 0
59 -474 522 0
-59 474 522 0
-59 475 -522 0
60 519 -61 0
60 -519 -68 0
-60 -519 68 0
-60 519 61 0
61 520 -62 0
61 -520 -65 0
-61 -520 65 0
-61 520 62 0
62 521 -63 0
62 -521 -64 0
-62 -521 64 0
-62 521 63 0
63 -477 -522 0
63 -476 522 0
-63 476 522 0
-63 477 -522 0
64 -479 -522 0
64 -478 522 0
-64 478 522 0
-64 479 -522 0
65 521 -66 0
65 -521 -67 0
-65 -521 67 0
-65 521 66 0
66 -481 -522 0
66 -480 522 0
-66 480 522 0
-66 481 -522 0
67 -483 -522 0
67 -482 522 0
-67 482 522 0
-67 483 -522 0
68 520 -69 0
68 -520 -72 0
-68 -520 72 0
-68 520 69 0
69 521 -70 0
69 -521 -71 0
-69 -521 71 0
-69 521 70 0
70 -485 -522 0
70 -484 522 0
-70 484 522 0
-70 485 -522 0
71 -487 -522 0
71 -486 522 0
-71 486 522 0
-71 487 -522 0
-72 521 73 0
-72 -521 -522 0
-72 490 -521 0
72 521 -73 0
72 -490 -521 522 0
73 -489 -522 0
73 -488 522 0
-73 488 522 0
-73 489 -522 0
74 -103 -132 0
74 32 -75 -103 0
74 32 -75 -132 0
-74 75 103 0
-74 -32 132 0
-74 75 132 0
-74 103 132 0
-74 -32 103 0
-75 518 76 0
-75 -518 91 0
75 -518 -91 0
75 518 -76 0
-76 519 77 0
-76 -519 84 0
76 -519 -84 0
76 519 -77 0
-77 520 78 0
-77 -520 81 0
77 -520 -81 0
77 520 -78 0
-78 521 80 0
-78 -521 79 0
78 -521 -79 0
78 521 -80 0
79 -496 -522 0
79 -495 522 0
-79 495 522 0
-79 496 -522 0
80 -494 -522 0
80 -493 522 0
-80 493 522 0
-80 494 -522 0
81 521 -82 0
81 -521 -83 0
-81 -521 83 0
-81 521 82 0
82 -498 -522 0
82 -497 522 0
-82 497 522 0
-82 498 -522 0
83 -500 -522 0
83 -499 522 0
-83 499 522 0
-83 500 -522 0
84 520 -85 0
84 -520 -88 0
-84 -520 88 0
-84 520 85 0
85 521 -86 0
85 -521 -87 0
-85 -521 87 0
-85 521 86 0
86 -502 -522 0
86 -501 522 0
-86 501 522 0
-86 502 -522 0
87 -504 -522 0
87 -503 522 0
-87 503 522 0
-87 504 -522 0
88 521 -89 0
88 -521 -90 0
-88 -521 90 0
-88 521 89 0
89 -506 -522 0
89 -505 522 0
-89 505 522 0
-89 506 -522 0
90 -508 -522 0
90 -507 522 0
-90 507 522 0
-90 508 -522 0
91 519 -92 0
91 -519 -99 0
-91 -519 99 0
-91 519 92 0
92 520 -93 0
92 -520 -96 0
-92 -520 96 0
-92 520 93 0
93 521 -94 0
93 -521 -95 0
-93 -521 95 0
-93 521 94 0
94 -510 -522 0
94 -509 522 0
-94 509 522 0
-94 510 -522 0
95 -512 -522 0
95 -511 522 0
-95 511 522 0
-95 512 -522 0
96 521 -97 0
96 -521 -98 0
-96 -521 98 0
-96 521 97 0
97 -514 -522 0
97 -513 522 0
-97 513 522 0
-97 514 -522 0
98 -516 -522 0
98 -515 522 0
-98 515 522 0
-98 516 -522 0
99 520 -100 0
99 -520 521 -522 0
-99 -520 -521 0
-99 520 100 0
-99 -520 522 0
100 521 -101 0
100 -521 -102 0
-100 -521 102 0
-100 521 101 0
101 -518 -522 0
101 -517 522 0
-101 517 522 0
-101 518 -522 0
102 -520 -522 0
102 -519 522 0
-102 519 522 0
-102 520 -522 0
103 -518 32 -119 0
103 518 32 -104 0
-103 -32 0
-103 -518 119 0
-103 518 104 0
-104 519 105 0
-104 -519 112 0
104 -519 -112 0
104 519 -105 0
-105 520 106 0
-105 -520 109 0
105 -520 -109 0
105 520 -106 0
-106 521 108 0
-106 -521 107 0
106 -521 -107 0
106 521 -108 0
107 -464 -522 0
107 -463 522 0
-107 463 522 0
-107 464 -522 0
108 -462 -522 0
108 -461 522 0
-108 461 522 0
-108 462 -522 0
109 521 -110 0
109 -521 -111 0
-109 -521 111 0
-109 521 110 0
110 -466 -522 0
110 -465 522 0
-110 465 522 0
-110 466 -522 0
111 -468 -522 0
111 -467 522 0
-111 467 522 0
-111 468 -522 0
112 520 -113 0
112 -520 -116 0
-112 -520 116 0
-112 520 113 0
113 521 -114 0
113 -521 -115 0
-113 -521 115 0
-113 521 114 0
114 -470 -522 0
114 -469 522 0
-114 469 522 0
-114 470 -522 0
115 -472 -522 0
115 -471 522 0
-115 471 522 0
-115 472 -522 0
116 521 -117 0
116 -521 -118 0
-116 -521 118 0
-116 521 117 0
117 -474 -522 0
117 -473 522 0
-117 473 522 0
-117 474 -522 0
118 -476 -522 0
118 -475 522 0
-118 475 522 0
-118 476 -522 0
119 519 -120 0
119 -519 -127 0
-119 -519 127 0
-119 519 120 0
120 520 -121 0
120 -520 -124 0
-120 -520 124 0
-120 520 121 0
121 521 -122 0
121 -521 -123 0
-121 -521 123 0
-121 521 122 0
122 -478 -522 0
122 -477 522 0
-122 477 522 0
-122 478 -522 0
123 -480 -522 0
123 -479 522 0
-123 479 522 0
-123 480 -522 0
124 521 -125 0
124 -521 -126 0
-124 -521 126 0
-124 521 125 0
125 -482 -522 0
125 -481 522 0
-125 481 522 0
-125 482 -522 0
126 -484 -522 0
126 -483 522 0
-126 483 522 0
-126 484 -522 0
127 520 -128 0
127 -520 -131 0
-127 -520 131 0
-127 520 128 0
128 521 -129 0
128 -521 -130 0
-128 -521 130 0
-128 521 129 0
129 -486 -522 0
129 -485 522 0
-129 485 522 0
-129 486 -522 0
130 -488 -522 0
130 -487 522 0
-130 487 522 0
-130 488 -522 0
131 -489 521 522 0
131 -490 521 -522 0
-131 -521 0
-131 490 -522 0
-131 489 522 0
132 -133 -147 0
132 -147 -162 0
132 -133 -162 0
-132 133 162 0
-132 147 162 0
-132 133 147 0
133 -518 32 -141 0
133 518 32 -134 0
-133 -32 0
-133 -518 141 0
-133 518 134 0
-134 519 135 0
-134 -519 138 0
134 -519 -138 0
134 519 -135 0
-135 520 136 0
-135 -520 137 0
135 -520 -137 0
135 520 -136 0
-136 -521 23 0
-136 521 21 0
136 521 -21 0
136 -521 -23 0
137 521 -24 0
137 -521 -27 0
-137 -521 27 0
-137 521 24 0
138 520 -139 0
138 -520 -140 0
-138 -520 140 0
-138 520 139 0
139 521 -28 0
139 -521 -30 0
-139 -521 30 0
-139 521 28 0
140 -521 -8 0
140 521 -31 0
-140 521 31 0
-140 -521 8 0
141 519 -142 0
141 -519 -145 0
-141 -519 145 0
-141 519 142 0
142 520 -143 0
142 -520 -144 0
-142 -520 144 0
-142 520 143 0
143 521 -9 0
143 -521 -11 0
-143 -521 11 0
-143 521 9 0
144 521 -12 0
144 -521 -15 0
-144 -521 15 0
-144 521 12 0
145 520 -146 0
-145 -520 0
-145 146 0
146 -520 -521 0
146 521 -16 0
146 -521 -522 0
-146 521 16 0
-146 520 -521 522 0
147 -518 32 -155 0
147 518 32 -148 0
-147 -32 0
-147 -518 155 0
-147 518 148 0
-148 519 149 0
-148 -519 152 0
148 -519 -152 0
148 519 -149 0
-149 520 150 0
-149 -520 151 0
149 -520 -151 0
149 520 -150 0
-150 -521 51 0
-150 521 48 0
150 521 -48 0
150 -521 -51 0
151 521 -52 0
151 -521 -55 0
-151 -521 55 0
-151 521 52 0
152 520 -153 0
152 -520 -154 0
-152 -520 154 0
-152 520 153 0
153 521 -56 0
153 -521 -58 0
-153 -521 58 0
-153 521 56 0
154 521 -59 0
154 -521 -63 0
-154 -521 63 0
-154 521 59 0
155 519 -156 0
155 -519 -159 0
-155 -519 159 0
-155 519 156 0
156 520 -157 0
156 -520 -158 0
-156 -520 158 0
-156 520 157 0
157 521 -64 0
157 -521 -66 0
-157 -521 66 0
-157 521 64 0
158 521 -67 0
158 -521 -70 0
-158 -521 70 0
-158 521 67 0
-159 520 161 0
-159 -520 160 0
159 -520 -160 0
159 520 -161 0
160 -490 521 522 0
-160 490 0
-160 -522 0
-160 -521 0
161 521 -71 0
161 -521 -73 0
-161 -521 73 0
-161 521 71 0
162 -163 -176 0
162 -176 -191 0
162 -163 -191 0
-162 163 191 0
-162 176 191 0
-162 163 176 0
163 -518 32 -171 0
163 518 32 -164 0
-163 -32 0
-163 -518 171 0
-163 518 164 0
-164 519 165 0
-164 -519 168 0
164 -519 -168 0
164 519 -165 0
-165 520 167 0
-165 -520 166 0
165 -520 -166 0
165 520 -167 0
166 521 -83 0
166 -521 -86 0
-166 -521 86 0
-166 521 83 0
167 521 -79 0
167 -521 -82 0
-167 -521 82 0
-167 521 79 0
168 520 -169 0
168 -520 -170 0
-168 -520 170 0
-168 520 169 0
169 521 -87 0
169 -521 -89 0
-169 -521 89 0
-169 521 87 0
170 521 -90 0
170 -521 -94 0
-170 -521 94 0
-170 521 90 0
171 519 -172 0
171 -519 -175 0
-171 -519 175 0
-171 519 172 0
172 520 -173 0
172 -520 -174 0
-172 -520 174 0
-172 520 173 0
173 521 -95 0
173 -521 -97 0
-173 -521 97 0
-173 521 95 0
174 521 -98 0
174 -521 -101 0
-174 -521 101 0
-174 521 98 0
175 520 -521 0
175 -519 520 522 0
-175 -520 0
-175 521 -522 0
-175 519 521 0
176 -518 32 -184 0
176 518 32 -177 0
-176 -32 0
-176 -518 184 0
-176 518 177 0
-177 519 178 0
-177 -519 181 0
177 -519 -181 0
177 519 -178 0
-178 520 180 0
-178 -520 179 0
178 -520 -179 0
178 520 -180 0
179 521 -111 0
179 -521 -114 0
-179 -521 114 0
-179 521 111 0
180 521 -107 0
180 -521 -110 0
-180 -521 110 0
-180 521 107 0
181 520 -182 0
181 -520 -183 0
-181 -520 183 0
-181 520 182 0
182 521 -115 0
182 -521 -117 0
-182 -521 117 0
-182 521 115 0
183 521 -118 0
183 -521 -122 0
-183 -521 122 0
-183 521 118 0
184 519 -185 0
184 -519 -188 0
-184 -519 188 0
-184 519 185 0
185 520 -186 0
185 -520 -187 0
-185 -520 187 0
-185 520 186 0
186 521 -123 0
186 -521 -125 0
-186 -521 125 0
-186 521 123 0
187 521 -126 0
187 -521 -129 0
-187 -521 129 0
-187 521 126 0
188 520 -189 0
-188 -520 0
-188 189 0
189 521 -130 0
189 -521 -190 0
-189 -521 190 0
-189 521 130 0
-190 489 522 0
-190 490 -522 0
190 -490 -522 0
190 -489 522 0
191 -197 -204 0
191 32 -192 -197 0
191 32 -192 -204 0
-191 192 197 0
-191 -32 204 0
-191 192 204 0
-191 197 204 0
-191 -32 197 0
-192 -518 -519 0
-192 518 193 0
-192 -518 196 0
192 518 -193 0
192 -518 519 -196 0
-193 519 194 0
-193 -519 195 0
193 -519 -195 0
193 519 -194 0
-194 -520 26 0
-194 520 22 0
194 520 -22 0
194 -520 -26 0
195 -520 -7 0
195 520 -29 0
-195 520 29 0
-195 -520 7 0
196 520 -10 0
196 -520 -14 0
-196 -520 14 0
-196 520 10 0
197 -518 32 -201 0
197 518 32 -198 0
-197 -32 0
-197 -518 201 0
-197 518 198 0
-198 519 199 0
-198 -519 200 0
198 -519 -200 0
198 519 -199 0
-199 -520 54 0
-199 520 50 0
199 520 -50 0
199 -520 -54 0
200 520 -57 0
200 -520 -62 0
-200 -520 62 0
-200 520 57 0
201 519 -202 0
201 -519 -203 0
-201 -519 203 0
-201 519 202 0
202 520 -65 0
202 -520 -69 0
-202 -520 69 0
-202 520 65 0
203 520 -72 0
-203 -520 0
-203 72 0
204 -205 -212 0
204 -212 -219 0
204 -205 -219 0
-204 205 219 0
-204 212 219 0
-204 205 212 0
205 -518 32 -209 0
205 518 32 -206 0
-205 -32 0
-205 -518 209 0
-205 518 206 0
-206 519 207 0
-206 -519 208 0
206 -519 -208 0
206 519 -207 0
-207 -520 85 0
-207 520 81 0
207 520 -81 0
207 -520 -85 0
208 520 -88 0
208 -520 -93 0
-208 -520 93 0
-208 520 88 0
209 519 -211 0
209 -519 520 -210 0
-209 -519 -520 0
-209 519 211 0
-209 -519 210 0
210 521 -522 0
-210 -521 0
-210 522 0
211 520 -96 0
211 -520 -100 0
-211 -520 100 0
-211 520 96 0
212 -518 32 -216 0
212 518 32 -213 0
-212 -32 0
-212 -518 216 0
-212 518 213 0
-213 519 214 0
-213 -519 215 0
213 -519 -215 0
213 519 -214 0
-214 -520 113 0
-214 520 109 0
214 520 -109 0
214 -520 -113 0
215 520 -116 0
215 -520 -121 0
-215 -520 121 0
-215 520 116 0
216 519 -217 0
216 -519 -218 0
-216 -519 218 0
-216 519 217 0
217 520 -124 0
217 -520 -128 0
-217 -520 128 0
-217 520 124 0
218 520 -131 0
-218 -520 0
-218 131 0
219 -220 -226 0
219 -220 -233 -247 0
219 -226 -233 -247 0
-219 226 247 0
-219 220 233 0
-219 220 247 0
-219 226 233 0
-219 220 226 0
220 -518 32 -224 0
220 518 32 -221 0
-220 -32 0
-220 -518 224 0
-220 518 221 0
-221 519 222 0
-221 -519 223 0
221 -519 -223 0
221 519 -222 0
-222 -520 139 0
-222 520 137 0
222 520 -137 0
222 -520 -139 0
223 520 -140 0
223 -520 -143 0
-223 -520 143 0
-223 520 140 0
224 519 -225 0
-224 -519 0
-224 225 0
225 -520 -521 0
225 520 -144 0
225 -520 -16 0
-225 520 144 0
-225 -520 521 16 0
226 518 32 -227 0
226 -518 32 -230 0
-226 -32 0
-226 -518 230 0
-226 518 227 0
-227 519 228 0
-227 -519 229 0
227 -519 -229 0
227 519 -228 0
-228 -520 153 0
-228 520 151 0
228 520 -151 0
228 -520 -153 0
229 520 -154 0
229 -520 -157 0
-229 -520 157 0
-229 520 154 0
-230 519 232 0
-230 -519 231 0
230 -519 -231 0
230 519 -232 0
231 -490 520 521 522 0
-231 -522 0
-231 -521 0
-231 490 0
-231 -520 0
232 520 -158 0
232 -520 -161 0
-232 -520 161 0
-232 520 158 0
-233 234 241 0
233 -234 0
233 -241 0
234 -518 32 -238 0
234 518 32 -235 0
-234 -32 0
-234 -518 238 0
-234 518 235 0
-235 519 237 0
-235 -519 236 0
235 -519 -236 0
235 519 -237 0
236 520 -170 0
236 -520 -173 0
-236 -520 173 0
-236 520 170 0
237 520 -166 0
237 -520 -169 0
-237 -520 169 0
-237 520 166 0
238 519 -239 0
-238 -519 0
-238 239 0
239 520 -174 0
239 -520 -240 0
-239 -520 240 0
-239 520 174 0
-240 520 521 -522 0
-240 519 521 522 0
240 -521 0
240 -519 522 0
240 -520 -522 0
241 -518 32 -245 0
241 518 32 -242 0
-241 -32 0
-241 -518 245 0
-241 518 242 0
-242 519 244 0
-242 -519 243 0
242 -519 -243 0
242 519 -244 0
243 520 -183 0
243 -520 -186 0
-243 -520 186 0
-243 520 183 0
244 520 -179 0
244 -520 -182 0
-244 -520 182 0
-244 520 179 0
245 519 -246 0
-245 -519 0
-245 246 0
246 520 -187 0
246 -520 -189 0
-246 -520 189 0
-246 520 187 0
-247 248 249 255 0
-247 248 252 255 0
-247 248 249 252 0
247 -249 -252 0
247 -249 -255 0
247 -248 0
247 -252 -255 0
248 -234 -241 0
-248 234 0
-248 241 0
249 -518 32 -251 0
249 518 32 -250 0
-249 -32 0
-249 -518 251 0
-249 518 250 0
-250 519 25 0
-250 -519 6 0
250 -519 -6 0
250 519 -25 0
251 519 -13 0
-251 -519 0
-251 13 0
252 -518 32 -254 0
252 518 32 -253 0
-252 -32 0
-252 -518 254 0
-252 518 253 0
-253 -519 61 0
-253 519 53 0
253 519 -53 0
253 -519 -61 0
254 519 -68 0
-254 -519 0
-254 68 0
255 -259 -262 0
255 32 -256 -259 0
255 32 -256 -262 0
-255 256 259 0
-255 -32 262 0
-255 256 262 0
-255 259 262 0
-255 -32 259 0
-256 518 257 0
-256 -518 258 0
256 -518 -258 0
256 518 -257 0
-257 -519 92 0
-257 519 84 0
257 519 -84 0
257 -519 -92 0
258 519 -99 0
-258 -519 0
-258 99 0
259 -518 32 -261 0
259 518 32 -260 0
-259 -32 0
-259 -518 261 0
-259 518 260 0
-260 -519 120 0
-260 519 112 0
260 519 -112 0
260 -519 -120 0
261 519 -127 0
-261 -519 0
-261 127 0
262 -266 -269 0
262 32 -263 -266 0
262 32 -263 -269 0
-262 263 266 0
-262 -32 269 0
-262 263 269 0
-262 266 269 0
-262 -32 266 0
-263 518 264 0
-263 -518 265 0
263 -518 -265 0
263 518 -264 0
-264 -519 142 0
-264 519 138 0
264 519 -138 0
264 -519 -142 0
265 519 -145 0
-265 -519 0
-265 145 0
266 -518 32 -268 0
266 518 32 -267 0
-266 -32 0
-266 -518 268 0
-266 518 267 0
-267 -519 156 0
-267 519 152 0
267 519 -152 0
267 -519 -156 0
268 519 -159 0
-268 -519 0
-268 159 0
269 -273 -276 0
269 32 -270 -273 0
269 32 -270 -276 0
-269 270 273 0
-269 -32 276 0
-269 270 276 0
-269 273 276 0
-269 -32 273 0
-270 518 271 0
-270 -518 272 0
270 -518 -272 0
270 518 -271 0
-271 -519 172 0
-271 519 168 0
271 519 -168 0
271 -519 -172 0
272 519 520 -521 0
-272 521 0
-272 -520 0
-272 -519 0
273 -518 32 -275 0
273 518 32 -274 0
-273 -32 0
-273 -518 275 0
-273 518 274 0
-274 -519 185 0
-274 519 181 0
274 519 -181 0
274 -519 -185 0
275 519 -188 0
-275 -519 0
-275 188 0
276 -277 -282 0
276 -282 -285 0
276 -277 -285 0
-276 277 285 0
-276 282 285 0
-276 277 282 0
277 519 -195 278 0
277 -519 -196 278 0
-277 -278 0
-277 -519 196 0
-277 519 195 0
-278 279 38 280 0
278 -279 0
278 -38 0
278 -280 0
-279 491 492 493 0
279 -491 0
279 -493 0
279 -492 0
-280 33 42 43 281 0
280 -281 0
280 -33 0
280 -43 0
280 -42 0
-281 513 514 518 0
281 -513 0
281 -518 0
281 -514 0
282 -518 32 -284 0
282 518 32 -283 0
-282 -32 0
-282 -518 284 0
-282 518 283 0
-283 -519 202 0
-283 519 200 0
283 519 -200 0
283 -519 -202 0
284 519 -203 0
-284 -519 0
-284 203 0
285 -289 -292 0
285 32 -286 -289 0
285 32 -286 -292 0
-285 286 289 0
-285 -32 292 0
-285 286 292 0
-285 289 292 0
-285 -32 289 0
-286 518 287 0
-286 -518 288 0
286 -518 -288 0
286 518 -287 0
-287 -519 211 0
-287 519 208 0
287 519 -208 0
287 -519 -211 0
288 519 520 521 -522 0
-288 522 0
-288 -521 0
-288 -519 0
-288 -520 0
289 -518 32 -291 0
289 518 32 -290 0
-289 -32 0
-289 -518 291 0
-289 518 290 0
-290 -519 217 0
-290 519 215 0
290 519 -215 0
290 -519 -217 0
291 519 -218 0
-291 -519 0
-291 218 0
292 -293 -295 0
292 -295 -298 0
292 -293 -298 0
-292 293 298 0
-292 295 298 0
-292 293 295 0
293 518 -519 294 0
293 518 -223 294 0
-293 -518 0
-293 -294 0
-293 519 223 0
-294 519 32 0
-294 32 -225 0
294 -32 0
294 -519 225 0
295 32 -296 0
-295 -32 0
-295 296 0
-296 -518 -519 0
-296 518 297 0
-296 -518 231 0
296 518 -297 0
296 -518 519 -231 0
-297 -519 232 0
-297 519 229 0
297 519 -229 0
297 -519 -232 0
298 -299 -301 0
298 -301 -303 0
298 -299 -303 0
-298 299 303 0
-298 301 303 0
-298 299 301 0
299 37 280 -300 0
-299 -37 0
-299 -280 0
-299 300 0
300 519 -236 0
300 -519 -239 0
-300 -519 239 0
-300 519 236 0
301 278 -302 0
-301 -278 0
-301 302 0
302 519 -243 0
302 -519 -246 0
-302 -519 246 0
-302 519 243 0
303 -304 -305 0
303 -5 278 -305 0
303 -5 278 -304 0
-303 -278 305 0
-303 5 304 0
-303 304 305 0
-303 -278 304 0
-303 5 305 0
304 -60 278 0
-304 60 0
-304 -278 0
305 -306 -307 0
305 -91 278 -307 0
305 -91 278 -306 0
-305 -278 307 0
-305 91 306 0
-305 306 307 0
-305 -278 306 0
-305 91 307 0
306 -119 278 0
-306 119 0
-306 -278 0
307 -308 -309 0
307 -141 278 -309 0
307 -141 278 -308 0
-307 -278 309 0
-307 141 308 0
-307 308 309 0
-307 -278 308 0
-307 141 309 0
308 -155 278 0
-308 155 0
-308 -278 0
309 -310 -311 0
309 -310 -312 -313 0
309 -311 -312 -313 0
-309 311 313 0
-309 310 312 0
-309 311 312 0
-309 310 311 0
-309 310 313 0
310 -171 278 0
-310 171 0
-310 -278 0
311 -184 278 0
-311 184 0
-311 -278 0
312 -201 278 0
-312 201 0
-312 -278 0
313 -314 -315 0
313 -209 278 -315 0
313 -209 278 -314 0
-313 -278 315 0
-313 209 314 0
-313 314 315 0
-313 -278 314 0
-313 209 315 0
314 -216 278 0
-314 216 0
-314 -278 0
315 -316 -317 0
315 -224 278 -317 0
315 -224 278 -316 0
-315 -278 317 0
-315 224 316 0
-315 316 317 0
-315 -278 316 0
-315 224 317 0
316 -230 278 0
-316 230 0
-316 -278 0
317 -318 -319 0
317 -319 -320 0
317 -318 -320 0
-317 318 320 0
-317 319 320 0
-317 318 319 0
318 -238 278 0
-318 238 0
-318 -278 0
319 -245 278 0
-319 245 0
-319 -278 0
320 -321 -322 0
320 -322 -323 0
320 -321 -323 0
-320 321 323 0
-320 322 323 0
-320 321 322 0
321 -251 278 0
-321 251 0
-321 -278 0
322 -254 278 0
-322 254 0
-322 -278 0
323 -324 -325 0
323 -325 -326 0
323 -324 -326 0
-323 324 326 0
-323 325 326 0
-323 324 325 0
324 -258 278 0
-324 258 0
-324 -278 0
325 -261 278 0
-325 261 0
-325 -278 0
326 -327 -328 0
326 -328 -329 0
326 -327 -329 0
-326 327 329 0
-326 328 329 0
-326 327 328 0
327 -265 278 0
-327 265 0
-327 -278 0
328 -268 278 0
-328 268 0
-328 -278 0
329 -330 -331 0
329 -331 -332 0
329 -330 -332 0
-329 330 332 0
-329 331 332 0
-329 330 331 0
330 519 520 -521 278 0
-330 -519 0
-330 -278 0
-330 521 0
-330 -520 0
331 -275 278 0
-331 275 0
-331 -278 0
332 278 -284 -288 -291 0
-332 291 0
-332 -278 0
-332 288 0
-332 284 0
333 32 -334 345 0
333 32 334 -345 0
-333 -32 0
-333 334 345 0
-333 -334 -345 0
-334 335 340 0
-334 -335 -340 0
334 -335 340 0
334 335 -340 0
-335 -518 302 0
-335 518 336 0
335 -518 -302 0
335 518 -336 0
-336 -519 244 0
-336 519 337 0
336 -519 -244 0
336 519 -337 0
-337 -520 180 0
-337 520 338 0
337 -520 -180 0
337 520 -338 0
-338 -521 108 0
-338 521 339 0
338 -521 -108 0
338 521 -339 0
-339 459 522 0
-339 460 -522 0
339 -460 -522 0
339 -459 522 0
-340 -518 300 0
-340 518 341 0
340 -518 -300 0
340 518 -341 0
-341 -519 237 0
-341 519 342 0
341 -519 -237 0
341 519 -342 0
-342 -520 167 0
-342 520 343 0
342 -520 -167 0
342 520 -343 0
-343 -521 80 0
-343 521 344 0
343 -521 -80 0
343 521 -344 0
-344 491 522 0
-344 492 -522 0
344 -492 -522 0
344 -491 522 0
-345 -518 346 0
-345 518 397 424 0
345 518 -424 0
345 -518 -346 0
345 518 -397 0
-346 519 370 0
-346 -519 347 0
346 -519 -347 0
346 519 -370 0
347 520 -348 0
347 -520 -364 0
-347 -520 364 0
-347 520 348 0
348 521 -349 0
348 -521 -360 0
-348 -521 360 0
-348 521 349 0
349 -522 -358 0
349 522 -350 351 0
349 522 350 -351 0
-349 -522 358 0
-349 522 -350 -351 0
-349 522 350 351 0
350 483 -515 0
350 -483 515 0
-350 -483 -515 0
-350 483 515 0
351 -484 -516 0
351 -516 -352 0
351 -484 -352 0
-351 484 352 0
-351 516 352 0
-351 484 516 0
352 -485 -517 0
352 -517 -353 0
352 -485 -353 0
-352 485 353 0
-352 517 353 0
-352 485 517 0
353 -486 -518 0
353 -518 -354 0
353 -486 -354 0
-353 486 354 0
-353 518 354 0
-353 486 518 0
354 -487 -519 0
354 -519 -355 0
354 -487 -355 0
-354 487 355 0
-354 519 355 0
-354 487 519 0
355 -488 -520 0
355 -520 -356 0
355 -488 -356 0
-355 488 356 0
-355 520 356 0
-355 488 520 0
356 -489 -521 0
356 -521 -357 0
356 -489 -357 0
-356 489 357 0
-356 521 357 0
-356 489 521 0
357 -490 -522 0
-357 490 0
-357 522 0
-358 -352 -359 0
-358 352 359 0
358 352 -359 0
358 -352 359 0
359 484 -516 0
359 -484 516 0
-359 -484 -516 0
-359 484 516 0
360 -522 -362 0
360 522 -353 361 0
360 522 353 -361 0
-360 -522 362 0
-360 522 -353 -361 0
-360 522 353 361 0
361 485 -517 0
361 -485 517 0
-361 -485 -517 0
-361 485 517 0
362 354 -363 0
362 -354 363 0
-362 -354 -363 0
-362 354 363 0
363 486 -518 0
363 -486 518 0
-363 -486 -518 0
-363 486 518 0
364 -521 369 0
364 -365 369 0
-364 -369 0
-364 521 365 0
365 -522 -367 0
365 522 -355 366 0
365 522 355 -366 0
-365 -522 367 0
-365 522 -355 -366 0
-365 522 355 366 0
366 487 -519 0
366 -487 519 0
-366 -487 -519 0
-366 487 519 0
367 356 -368 0
367 -356 368 0
-367 -356 -368 0
-367 356 368 0
368 488 -520 0
368 -488 520 0
-368 -488 -520 0
-368 488 520 0
369 -489 -521 522 0
369 -490 -521 -522 0
-369 521 0
-369 490 -522 0
-369 489 522 0
370 520 -371 0
370 -520 -388 0
-370 -520 388 0
-370 520 371 0
371 521 -372 0
371 -521 -384 0
-371 -521 384 0
-371 521 372 0
372 -522 -382 0
372 522 -373 374 0
372 522 373 -374 0
-372 -522 382 0
-372 522 -373 -374 0
-372 522 373 374 0
373 475 -507 0
373 -475 507 0
-373 -475 -507 0
-373 475 507 0
374 -476 -508 0
374 -508 -375 0
374 -476 -375 0
-374 476 375 0
-374 508 375 0
-374 476 508 0
375 -477 -509 0
375 -509 -376 0
375 -477 -376 0
-375 477 376 0
-375 509 376 0
-375 477 509 0
376 -478 -510 0
376 -510 -377 0
376 -478 -377 0
-376 478 377 0
-376 510 377 0
-376 478 510 0
377 -479 -511 0
377 -511 -378 0
377 -479 -378 0
-377 479 378 0
-377 511 378 0
-377 479 511 0
378 -480 -512 0
378 -512 -379 0
378 -480 -379 0
-378 480 379 0
-378 512 379 0
-378 480 512 0
379 -481 -513 0
379 -513 -380 0
379 -481 -380 0
-379 481 380 0
-379 513 380 0
-379 481 513 0
380 -482 -514 0
380 -514 -381 0
380 -482 -381 0
-380 482 381 0
-380 514 381 0
-380 482 514 0
381 -483 -515 0
381 -515 -351 0
381 -483 -351 0
-381 483 351 0
-381 515 351 0
-381 483 515 0
-382 -375 -383 0
-382 375 383 0
382 375 -383 0
382 -375 383 0
383 476 -508 0
383 -476 508 0
-383 -476 -508 0
-383 476 508 0
384 -522 -386 0
384 522 -376 385 0
384 522 376 -385 0
-384 -522 386 0
-384 522 -376 -385 0
-384 522 376 385 0
385 477 -509 0
385 -477 509 0
-385 -477 -509 0
-385 477 509 0
-386 -377 -387 0
-386 377 387 0
386 377 -387 0
386 -377 387 0
387 478 -510 0
387 -478 510 0
-387 -478 -510 0
-387 478 510 0
388 521 -389 0
388 -521 -393 0
-388 -521 393 0
-388 521 389 0
389 -522 -391 0
389 522 -378 390 0
389 522 378 -390 0
-389 -522 391 0
-389 522 -378 -390 0
-389 522 378 390 0
390 479 -511 0
390 -479 511 0
-390 -479 -511 0
-390 479 511 0
-391 -379 -392 0
-391 379 392 0
391 379 -392 0
391 -379 392 0
392 480 -512 0
392 -480 512 0
-392 -480 -512 0
-392 480 512 0
393 -522 -395 0
393 522 -380 394 0
393 522 380 -394 0
-393 -522 395 0
-393 522 -380 -394 0
-393 522 380 394 0
394 481 -513 0
394 -481 513 0
-394 -481 -513 0
-394 481 513 0
-395 -381 -396 0
-395 381 396 0
395 381 -396 0
395 -381 396 0
396 482 -514 0
396 -482 514 0
-396 -482 -514 0
-396 482 514 0
397 -519 -520 -415 0
397 -519 520 -398 0
-397 519 0
-397 -520 415 0
-397 520 398 0
398 521 -399 0
398 -521 -411 0
-398 -521 411 0
-398 521 399 0
399 -522 -409 0
399 522 -400 401 0
399 522 400 -401 0
-399 -522 409 0
-399 522 -400 -401 0
-399 522 400 401 0
400 467 -499 0
400 -467 499 0
-400 -467 -499 0
-400 467 499 0
401 -468 -500 0
401 -500 -402 0
401 -468 -402 0
-401 468 402 0
-401 500 402 0
-401 468 500 0
402 -469 -501 0
402 -501 -403 0
402 -469 -403 0
-402 469 403 0
-402 501 403 0
-402 469 501 0
403 -470 -502 0
403 -502 -404 0
403 -470 -404 0
-403 470 404 0
-403 502 404 0
-403 470 502 0
404 -471 -503 0
404 -503 -405 0
404 -471 -405 0
-404 471 405 0
-404 503 405 0
-404 471 503 0
405 -472 -504 0
405 -504 -406 0
405 -472 -406 0
-405 472 406 0
-405 504 406 0
-405 472 504 0
406 -473 -505 0
406 -505 -407 0
406 -473 -407 0
-406 473 407 0
-406 505 407 0
-406 473 505 0
407 -474 -506 0
407 -506 -408 0
407 -474 -408 0
-407 474 408 0
-407 506 408 0
-407 474 506 0
408 -475 -507 0
408 -507 -374 0
408 -475 -374 0
-408 475 374 0
-408 507 374 0
-408 475 507 0
-409 -402 -410 0
-409 402 410 0
409 402 -410 0
409 -402 410 0
410 468 -500 0
410 -468 500 0
-410 -468 -500 0
-410 468 500 0
411 -522 -413 0
411 522 -403 412 0
411 522 403 -412 0
-411 -522 413 0
-411 522 -403 -412 0
-411 522 403 412 0
412 469 -501 0
412 -469 501 0
-412 -469 -501 0
-412 469 501 0
-413 -404 -414 0
-413 404 414 0
413 404 -414 0
413 -404 414 0
414 470 -502 0
414 -470 502 0
-414 -470 -502 0
-414 470 502 0
415 521 -416 0
415 -521 -420 0
-415 -521 420 0
-415 521 416 0
416 -522 -418 0
416 522 -405 417 0
416 522 405 -417 0
-416 -522 418 0
-416 522 -405 -417 0
-416 522 405 417 0
417 471 -503 0
417 -471 503 0
-417 -471 -503 0
-417 471 503 0
-418 -406 -419 0
-418 406 419 0
418 406 -419 0
418 -406 419 0
419 472 -504 0
419 -472 504 0
-419 -472 -504 0
-419 472 504 0
420 -522 -422 0
420 522 -407 421 0
420 522 407 -421 0
-420 -522 422 0
-420 522 -407 -421 0
-420 522 407 421 0
421 473 -505 0
421 -473 505 0
-421 -473 -505 0
-421 473 505 0
-422 -408 -423 0
-422 408 423 0
422 408 -423 0
422 -408 423 0
423 474 -506 0
423 -474 506 0
-423 -474 -506 0
-423 474 506 0
424 519 -520 -425 0
424 519 520 -438 0
-424 -519 0
-424 -520 425 0
-424 520 438 0
425 521 -426 0
425 -521 -434 0
-425 -521 434 0
-425 521 426 0
426 -522 -432 0
426 522 -427 428 0
426 522 427 -428 0
-426 -522 432 0
-426 522 -427 -428 0
-426 522 427 428 0
427 463 -495 0
427 -463 495 0
-427 -463 -495 0
-427 463 495 0
428 -464 -496 0
428 -496 -429 0
428 -464 -429 0
-428 464 429 0
-428 496 429 0
-428 464 496 0
429 -465 -497 0
429 -497 -430 0
429 -465 -430 0
-429 465 430 0
-429 497 430 0
-429 465 497 0
430 -466 -498 0
430 -498 -431 0
430 -466 -431 0
-430 466 431 0
-430 498 431 0
-430 466 498 0
431 -467 -499 0
431 -499 -401 0
431 -467 -401 0
-431 467 401 0
-431 499 401 0
-431 467 499 0
-432 -429 -433 0
-432 429 433 0
432 429 -433 0
432 -429 433 0
433 464 -496 0
433 -464 496 0
-433 -464 -496 0
-433 464 496 0
434 -522 -436 0
434 522 -430 435 0
434 522 430 -435 0
-434 -522 436 0
-434 522 -430 -435 0
-434 522 430 435 0
435 465 -497 0
435 -465 497 0
-435 -465 -497 0
-435 465 497 0
-436 -431 -437 0
-436 431 437 0
436 431 -437 0
436 -431 437 0
437 466 -498 0
437 -466 498 0
-437 -466 -498 0
-437 466 498 0
-438 521 439 0
-438 -521 447 0
438 -521 -447 0
438 521 -439 0
-439 522 443 0
-439 -522 -440 -446 0
-439 -522 440 446 0
439 522 -443 0
439 -522 -440 446 0
439 -522 440 -446 0
440 -461 -493 0
440 -493 -441 0
440 -461 -441 0
-440 461 441 0
-440 493 441 0
-440 461 493 0
441 -462 -494 0
441 -494 -442 0
441 -462 -442 0
-441 462 442 0
-441 494 442 0
-441 462 494 0
442 -463 -495 0
442 -495 -428 0
442 -463 -428 0
-442 463 428 0
-442 495 428 0
-442 463 495 0
-443 444 445 0
-443 -444 -445 0
443 -444 445 0
443 444 -445 0
444 -460 -492 0
444 -492 -440 0
444 -460 -440 0
-444 460 440 0
-444 492 440 0
-444 460 492 0
-445 -459 -491 0
-445 459 491 0
445 459 -491 0
445 -459 491 0
446 460 -492 0
446 -460 492 0
-446 -460 -492 0
-446 460 492 0
447 -522 -449 0
447 522 -441 448 0
447 522 441 -448 0
-447 -522 449 0
-447 522 -441 -448 0
-447 522 441 448 0
448 461 -493 0
448 -461 493 0
-448 -461 -493 0
-448 461 493 0
-449 -442 -450 0
-449 442 450 0
449 442 -450 0
449 -442 450 0
450 462 -494 0
450 -462 494 0
-450 -462 -494 0
-450 462 494 0
451 518 32 -454 0
451 -518 32 -452 0
-451 -32 0
-451 518 454 0
-451 -518 452 0
-452 -519 -520 0
-452 519 453 0
-452 -519 364 0
452 519 -453 0
452 -519 520 -364 0
453 -520 -348 0
453 520 -388 0
-453 520 388 0
-453 -520 348 0
-454 519 456 0
-454 455 456 0
454 -456 0
454 -519 -455 0
455 -520 -371 0
455 520 -415 0
-455 520 415 0
-455 -520 371 0
456 519 520 -425 0
456 519 -520 -398 0
-456 -519 0
-456 -520 398 0
-456 520 425 0
-457 -191 -458 0
-457 191 458 0
457 191 -458 0
457 -191 458 0
458 163 -176 0
458 -163 176 0
-458 -163 -176 0
-458 163 176 0
-523 0
2 0

